%chk=C:\G09W\Hw5\energy60.chk
# td b3lyp/3-21g geom=connectivity

Title Card Required

0 1
 C                  2.94549600    0.02474900   -0.06303400
 C                  2.29380700    0.42010700    1.09696700
 C                  0.91367500    0.41383200    1.14753700
 C                  0.16328300    0.01776700    0.05075800
 C                  0.82551200   -0.37640500   -1.10696700
 C                  2.20314000   -0.37534900   -1.16797700
 H                  2.86648000    0.72747900    1.94832600
 H                  0.39757300    0.71249700    2.03548000
 H                  0.25765700   -0.68399700   -1.96187300
 H                  2.70763400   -0.68013600   -2.06242400
 C                  4.37264200    0.02815000   -0.12219000
 N                  5.51224100    0.03073100   -0.16972100
 N                 -1.25788100    0.02965600    0.13558100
 C                 -1.96246643   -1.25285068    0.36976655
 H                 -1.65992615   -2.00631944   -0.35607283
 C                 -2.00352016    0.89879850   -0.82087939
 H                 -1.43685146    1.02421872   -1.73672858
 C                 -2.25847528    2.26666102   -0.18378459
 H                 -2.84660793    2.14542210    0.71760326
 H                 -1.32043242    2.74029025    0.08180275
 H                 -2.78943760    2.91793412   -0.87015928
 C                 -1.71107548   -1.76980425    1.78568930
 H                 -0.66323266   -2.00218214    1.93451528
 H                 -2.00082437   -1.00908882    2.49982763
 H                 -2.28817819   -2.66988118    1.96870228
 C                 -3.42167326   -0.84998779    0.10902793
 H                 -4.05368347   -1.70503497   -0.09143950
 H                 -3.80274485   -0.32258761    0.97501911
 C                 -3.30962957    0.10835343   -1.09323862
 H                 -4.16490662    0.76335395   -1.19007326
 H                 -3.21157023   -0.46778797   -2.00628654

 1 2 1.5 6 1.5 11 1.5
 2 3 2.0 7 1.0
 3 4 1.5 8 1.0
 4 5 1.5 13 1.0
 5 6 2.0 9 1.0
 6 10 1.0
 7
 8
 9
 10
 11 12 3.0
 12
 13 14 1.0 16 1.0
 14 15 1.0 22 1.0 26 1.0
 15
 16 17 1.0 18 1.0 29 1.0
 17
 18 19 1.0 20 1.0 21 1.0
 19
 20
 21
 22 23 1.0 24 1.0 25 1.0
 23
 24
 25
 26 27 1.0 28 1.0 29 1.0
 27
 28
 29 30 1.0 31 1.0
 30
 31

