%chk=C:\G09W\Hw5\energy40.chk
# td b3lyp/3-21g geom=connectivity

Title Card Required

0 1
 C                 -2.94536722   -0.02851849   -0.05816123
 C                 -2.29080652    0.73667224    0.89716194
 C                 -0.91064992    0.74251663    0.94712294
 C                 -0.16312600   -0.00957300    0.05356300
 C                 -0.82822736   -0.77312833   -0.89978306
 C                 -2.20585591   -0.78524061   -0.95958349
 H                 -2.86125657    1.32021853    1.59092351
 H                 -0.39222941    1.32980284    1.67536747
 H                 -0.26263443   -1.35944472   -1.59568146
 H                 -2.71256581   -1.37523416   -1.69619653
 C                 -4.37253337   -0.03881248   -0.11603399
 N                 -5.51214688   -0.04721396   -0.16251449
 N                  1.25791700    0.01484900    0.13772900
 C                  1.98254600    1.15303000   -0.47510200
 H                  1.68953600    1.29218000   -1.51475100
 C                  1.98767100   -1.27130100   -0.06096600
 H                  1.41669000   -1.93354000   -0.70209200
 C                  2.22352400   -1.94499400    1.29271500
 H                  2.81586400   -1.29534200    1.92531600
 H                  1.27911000   -2.13625000    1.78899100
 H                  2.74266800   -2.88942500    1.16730800
 C                  1.74286800    2.44441700    0.30602000
 H                  0.69908500    2.73303000    0.26939200
 H                  2.02294800    2.29247400    1.34096200
 H                  2.33407900    3.25373800   -0.10888900
 C                  3.43475100    0.65581800   -0.41637000
 H                  4.07914200    1.18973300   -1.10224600
 H                  3.81009900    0.77966500    0.59213500
 C                  3.30490500   -0.84187200   -0.75766500
 H                  4.14986200   -1.42541800   -0.41792600
 H                  3.21315000   -0.96088400   -1.83127000

 1 2 1.5 6 1.5 11 1.5
 2 3 2.0 7 1.0
 3 4 1.5 8 1.0
 4 5 1.5 13 1.0
 5 6 2.0 9 1.0
 6 10 1.0
 7
 8
 9
 10
 11 12 3.0
 12
 13 14 1.0 16 1.0
 14 15 1.0 22 1.0 26 1.0
 15
 16 17 1.0 18 1.0 29 1.0
 17
 18 19 1.0 20 1.0 21 1.0
 19
 20
 21
 22 23 1.0 24 1.0 25 1.0
 23
 24
 25
 26 27 1.0 28 1.0 29 1.0
 27
 28
 29 30 1.0 31 1.0
 30
 31

