%chk=C:\G09W\Hw5\ENERGY220.chk
# td b3lyp/3-21g geom=connectivity

Title Card Required

0 1
 C                 -2.94361700   -0.05527200   -0.04737600
 C                 -2.19103300   -1.10185800   -0.56204700
 C                 -0.81257300   -1.06001000   -0.48818600
 C                 -0.16364500    0.01817700    0.09429700
 C                 -0.92650700    1.06197200    0.60691300
 C                 -2.30347800    1.02987400    0.53977800
 H                 -2.68498500   -1.93813600   -1.01359400
 H                 -0.21947900   -1.86053700   -0.87729200
 H                 -0.43763000    1.90140000    1.05890200
 H                 -2.88576000    1.83674400    0.93645800
 C                 -4.36967900   -0.09219600   -0.11976100
 N                 -5.50844000   -0.12140900   -0.17738900
 N                  1.25903300    0.03149100    0.14772000
 C                  1.99708448    0.81354205   -0.87197820
 H                  1.68567035    0.53999256   -1.87909267
 C                  1.95416527   -1.24986343    0.46572089
 H                  1.35452465   -2.09397217    0.14395303
 C                  2.20252697   -1.34169001    1.97297806
 H                  2.82304134   -0.51314064    2.29166916
 H                  1.26451281   -1.29347550    2.51389209
 H                  2.69668726   -2.27401702    2.22548509
 C                  1.80412115    2.31484406   -0.66189481
 H                  0.76683891    2.59655169   -0.79903738
 H                  2.10221119    2.57517356    0.34607615
 H                  2.40527694    2.87689796   -1.36857065
 C                  3.43816893    0.33680532   -0.63625759
 H                  4.08035120    0.53745390   -1.48364824
 H                  3.83737966    0.83716744    0.23757125
 C                  3.26618613   -1.16948591   -0.35710908
 H                  4.10419734   -1.59659297    0.17695139
 H                  3.14917612   -1.69952871   -1.29549586

 1 2 1.5 6 1.5 11 1.5
 2 3 2.0 7 1.0
 3 4 1.5 8 1.0
 4 5 1.5 13 1.0
 5 6 2.0 9 1.0
 6 10 1.0
 7
 8
 9
 10
 11 12 3.0
 12
 13 14 1.0 16 1.0
 14 15 1.0 22 1.0 26 1.0
 15
 16 17 1.0 18 1.0 29 1.0
 17
 18 19 1.0 20 1.0 21 1.0
 19
 20
 21
 22 23 1.0 24 1.0 25 1.0
 23
 24
 25
 26 27 1.0 28 1.0 29 1.0
 27
 28
 29 30 1.0 31 1.0
 30
 31

