%chk=C:\G09W\Hw5\energy180,.chk
# td b3lyp/3-21g geom=connectivity

Title Card Required

0 1
 C                 -2.94526583   -0.04482526   -0.06243250
 C                 -2.29373093   -0.28261723    1.13988558
 C                 -0.91368396   -0.26542554    1.19023261
 C                 -0.16322000   -0.01422900    0.05155600
 C                 -0.82529425    0.22265316   -1.14835611
 C                 -2.20284199    0.20927270   -1.20973804
 H                 -2.86645886   -0.47750751    2.02376518
 H                 -0.39771167   -0.44346011    2.11006020
 H                 -0.25738256    0.41727974   -2.03578537
 H                 -2.70721848    0.39256067   -2.13680653
 C                 -4.37232549   -0.06044276   -0.12170622
 N                 -5.51185558   -0.07282067   -0.16934505
 N                  1.25787400   -0.01042200    0.13827600
 C                  2.03416561   -0.64093539   -0.95531063
 H                  1.69606660   -1.65933488   -1.14142586
 C                  1.87308288   -0.27545670    1.47149748
 H                  1.21776079   -0.89601090    2.07240343
 C                  2.12991033    1.04915446    2.19356764
 H                  2.80504107    1.65973881    1.60664224
 H                  1.20223955    1.59440031    2.32363273
 H                  2.56614937    0.87594593    3.17177093
 C                  1.93928687    0.17775103   -2.24217859
 H                  0.92075350    0.20612461   -2.61083235
 H                  2.26325708    1.19193600   -2.04441825
 H                  2.56803592   -0.25408102   -3.01346283
 C                  3.44421034   -0.67453310   -0.34686310
 H                  4.08949910   -1.38526900   -0.84604930
 H                  3.88305853    0.31327112   -0.41732342
 C                  3.17939875   -1.03725637    1.12783119
 H                  3.99371990   -0.75756949    1.78247495
 H                  3.01963899   -2.10604840    1.21367341

 1 2 1.5 6 1.5 11 1.5
 2 3 2.0 7 1.0
 3 4 1.5 8 1.0
 4 5 1.5 13 1.0
 5 6 2.0 9 1.0
 6 10 1.0
 7
 8
 9
 10
 11 12 3.0
 12
 13 14 1.0 16 1.0
 14 15 1.0 22 1.0 26 1.0
 15
 16 17 1.0 18 1.0 29 1.0
 17
 18 19 1.0 20 1.0 21 1.0
 19
 20
 21
 22 23 1.0 24 1.0 25 1.0
 23
 24
 25
 26 27 1.0 28 1.0 29 1.0
 27
 28
 29 30 1.0 31 1.0
 30
 31

