%chk=C:\G09W\Hw5\ENERGY280.chk
# td b3lyp/3-21g geom=connectivity

Title Card Required

0 1
 C                  2.94381184    0.01053389   -0.05572222
 C                  2.18857270   -0.74427948   -0.94256150
 C                  0.80990428   -0.72329899   -0.86386122
 C                  0.16347600    0.04343800    0.09380500
 C                  0.92900198    0.79610661    0.97794438
 C                  2.30612234    0.78367325    0.90743519
 H                  2.68058830   -1.33915421   -1.68504880
 H                  0.21457734   -1.29695239   -1.54247341
 H                  0.44211969    1.39229429    1.72322395
 H                  2.89045295    1.36558560    1.59108791
 C                  4.37006762   -0.00590427   -0.13175298
 N                  5.50898283   -0.01880494   -0.19223502
 N                 -1.25911800    0.03655300    0.15057200
 C                 -1.96916100   -1.24396000   -0.07797700
 H                 -1.65231500   -1.70862400   -1.01059900
 C                 -1.98448000    1.18431900   -0.46804200
 H                 -1.39911500    1.60884700   -1.27596900
 C                 -2.25154700    2.25665100    0.59059900
 H                 -2.85807200    1.84112600    1.38593600
 H                 -1.31883300    2.60494000    1.01899500
 H                 -2.76794200    3.10620200    0.15610200
 C                 -1.74711600   -2.21265900    1.08288200
 H                 -0.70268500   -2.48965000    1.16389300
 H                 -2.05092900   -1.73730400    2.00720300
 H                 -2.32841600   -3.11704600    0.93845900
 C                 -3.42247100   -0.76552100   -0.21418600
 H                 -4.05079300   -1.49699000   -0.70499700
 H                 -3.82084400   -0.56047500    0.77200100
 C                 -3.28524800    0.54310100   -1.01736200
 H                 -4.13794900    1.19852000   -0.90234600
 H                 -3.16889800    0.31031300   -2.06973100

 1 2 1.5 6 1.5 11 1.5
 2 3 2.0 7 1.0
 3 4 1.5 8 1.0
 4 5 1.5 13 1.0
 5 6 2.0 9 1.0
 6 10 1.0
 7
 8
 9
 10
 11 12 3.0
 12
 13 14 1.0 16 1.0
 14 15 1.0 22 1.0 26 1.0
 15
 16 17 1.0 18 1.0 29 1.0
 17
 18 19 1.0 20 1.0 21 1.0
 19
 20
 21
 22 23 1.0 24 1.0 25 1.0
 23
 24
 25
 26 27 1.0 28 1.0 29 1.0
 27
 28
 29 30 1.0 31 1.0
 30
 31

