%chk=C:\G09W\Hw5\ENERGY320.chk
# td b3lyp/3-21g geom=connectivity

Title Card Required

0 1
 C                  2.94372400    0.02275900   -0.06320900
 C                  2.20539900   -1.03352600   -0.57871900
 C                  0.82642900   -1.00962600   -0.50638600
 C                  0.16298500    0.05870600    0.07789900
 C                  0.91164300    1.11215600    0.59170600
 C                  2.28887900    1.09929900    0.52356700
 H                  2.71061700   -1.86237100   -1.03150400
 H                  0.24397100   -1.81461300   -0.90229400
 H                  0.41152700    1.94340100    1.04651400
 H                  2.86016900    1.91364900    0.92094000
 C                  4.37017500    0.00498900   -0.13514800
 N                  5.50924300   -0.00890400   -0.19246900
 N                 -1.25930400    0.04754300    0.14123700
 C                 -1.98357883   -1.10539859   -0.44379405
 H                 -1.67616614   -1.28179549   -1.47358365
 C                 -1.97592091    1.33153560   -0.11179498
 H                 -1.39025923    1.96750164   -0.76614346
 C                 -2.22669441    2.05236608    1.21464993
 H                 -2.83348487    1.42884842    1.85972798
 H                 -1.28833371    2.25339371    1.71848575
 H                 -2.73650135    2.99578377    1.04958141
 C                 -1.76571018   -2.37132377    0.38399770
 H                 -0.72378530   -2.66863926    0.37299471
 H                 -2.06002297   -2.18239455    1.40884926
 H                 -2.35697188   -3.18987864   -0.01231276
 C                 -3.43256369   -0.59586981   -0.42394345
 H                 -4.07079477   -1.14796738   -1.10112996
 H                 -3.82389643   -0.68276344    0.58234462
 C                 -3.28591869    0.88841881   -0.81355148
 H                 -4.13126599    1.48929575   -0.50657117
 H                 -3.17720492    0.97035168   -1.88904129

 1 2 1.5 6 1.5 11 1.5
 2 3 2.0 7 1.0
 3 4 1.5 8 1.0
 4 5 1.5 13 1.0
 5 6 2.0 9 1.0
 6 10 1.0
 7
 8
 9
 10
 11 12 3.0
 12
 13 14 1.0 16 1.0
 14 15 1.0 22 1.0 26 1.0
 15
 16 17 1.0 18 1.0 29 1.0
 17
 18 19 1.0 20 1.0 21 1.0
 19
 20
 21
 22 23 1.0 24 1.0 25 1.0
 23
 24
 25
 26 27 1.0 28 1.0 29 1.0
 27
 28
 29 30 1.0 31 1.0
 30
 31

