%chk=C:\G09W\Hw5\energy160.chk
# td b3lyp/3-21g geom=connectivity

Title Card Required

0 1
 C                 -2.94453300   -0.03717000   -0.05157700
 C                 -2.22918200   -1.22610300   -0.01522600
 C                 -0.85000900   -1.19799100    0.05150300
 C                 -0.16351200    0.00645800    0.08157000
 C                 -0.88923500    1.19229000    0.04452700
 C                 -2.26657300    1.17587900   -0.02069900
 H                 -2.75227900   -2.16049400   -0.03818900
 H                 -0.28539900   -2.10584100    0.08361600
 H                 -0.37109900    2.12983600    0.06635700
 H                 -2.82014900    2.09250700   -0.04885200
 C                 -4.37110700   -0.05874800   -0.11996900
 N                 -5.51026700   -0.07565800   -0.17455200
 N                  1.25884100   -0.00153600    0.14395500
 C                  1.99194100    1.21095800   -0.29024400
 H                  1.68559700    1.51959500   -1.28873500
 C                  1.96530400   -1.24828200   -0.27166200
 H                  1.37447700   -1.79107600   -1.00099100
 C                  2.21083700   -2.13427900    0.95172000
 H                  2.82269200   -1.60281200    1.67024100
 H                  1.27108800   -2.39065400    1.42703800
 H                  2.71319000   -3.05285900    0.66704500
 C                  1.78424800    2.36264600    0.69248400
 H                  0.74468200    2.66698100    0.72083900
 H                  2.07739200    2.04231400    1.68449700
 H                  2.38177700    3.22046000    0.40300500
 C                  3.43689700    0.69188000   -0.33741500
 H                  4.07922000    1.32086900   -0.93951500
 H                  3.82921100    0.64672600    0.67122700
 C                  3.27851300   -0.72943800   -0.91290300
 H                  4.11922400   -1.37106700   -0.68614500
 H                  3.16882500   -0.67272500   -1.98991700

 1 2 1.5 6 1.5 11 1.5
 2 3 2.0 7 1.0
 3 4 1.5 8 1.0
 4 5 1.5 13 1.0
 5 6 2.0 9 1.0
 6 10 1.0
 7
 8
 9
 10
 11 12 3.0
 12
 13 14 1.0 16 1.0
 14 15 1.0 22 1.0 26 1.0
 15
 16 17 1.0 18 1.0 29 1.0
 17
 18 19 1.0 20 1.0 21 1.0
 19
 20
 21
 22 23 1.0 24 1.0 25 1.0
 23
 24
 25
 26 27 1.0 28 1.0 29 1.0
 27
 28
 29 30 1.0 31 1.0
 30
 31

