%chk=C:\G09W\Hw5\ENERGY340.chk
# td b3lyp/3-21g geom=connectivity

Title Card Required

0 1
 C                 -2.94408000   -0.03218100   -0.05736000
 C                 -2.22575200    1.13093000   -0.29775600
 C                 -0.84638000    1.11436800   -0.23126900
 C                 -0.16275700   -0.05254200    0.07509800
 C                 -0.89147100   -1.21267100    0.31451900
 C                 -2.26890400   -1.20781000    0.24940100
 H                 -2.74662500    2.03629500   -0.53492400
 H                 -0.27917300    2.00185900   -0.41739100
 H                 -0.37565100   -2.12094700    0.55305300
 H                 -2.82477700   -2.10453900    0.43467200
 C                 -4.37081700   -0.02249500   -0.12503900
 N                 -5.51010800   -0.01507900   -0.17903500
 N                  1.25928900   -0.03214900    0.14150500
 C                  1.98359664    1.05693660   -0.55518830
 H                  1.67936259    1.12731525   -1.59853567
 C                  1.97890984   -1.33374501    0.02235154
 H                  1.39652633   -2.03399960   -0.56594781
 C                  2.22641780   -1.91575953    1.41588623
 H                  2.82998276   -1.22878660    1.99629364
 H                  1.28670304   -2.06651522    1.93452990
 H                  2.73836184   -2.87002987    1.34902472
 C                  1.76081308    2.39988014    0.13917570
 H                  0.71843375    2.69244742    0.09474245
 H                  2.05198454    2.31650594    1.17884117
 H                  2.35203318    3.17518619   -0.33626482
 C                  3.43335978    0.55496750   -0.47912366
 H                  4.07294251    1.03678730   -1.20680133
 H                  3.82115002    0.74430397    0.51439430
 C                  3.29052049   -0.96148463   -0.71657140
 H                  4.13583531   -1.52641009   -0.34751324
 H                  3.18557159   -1.15233850   -1.77853688

 1 2 1.5 6 1.5 11 1.5
 2 3 2.0 7 1.0
 3 4 1.5 8 1.0
 4 5 1.5 13 1.0
 5 6 2.0 9 1.0
 6 10 1.0
 7
 8
 9
 10
 11 12 3.0
 12
 13 14 1.0 16 1.0
 14 15 1.0 22 1.0 26 1.0
 15
 16 17 1.0 18 1.0 29 1.0
 17
 18 19 1.0 20 1.0 21 1.0
 19
 20
 21
 22 23 1.0 24 1.0 25 1.0
 23
 24
 25
 26 27 1.0 28 1.0 29 1.0
 27
 28
 29 30 1.0 31 1.0
 30
 31

