%chk=C:\G09W\Hw5\opt1.chk
# opt hf/3-21g geom=connectivity

Title Card Required

0 1
 C                 -1.94603697   -1.07349725   -1.36467444
 C                 -0.63901593   -1.52723232   -1.14242952
 C                  0.29283539   -0.70540374   -0.51462225
 C                 -0.08641869    0.56410110   -0.09423938
 C                 -1.43169859    0.94946585   -0.17322558
 C                 -2.36073816    0.13591513   -0.82483298
 H                 -0.35426768   -2.49665020   -1.46342973
 H                  1.29150522   -1.04032131   -0.37001095
 H                 -1.74656924    1.86687858    0.25577489
 H                 -3.37802787    0.44085749   -0.91585617
 C                 -2.90639213   -1.91639366   -2.23261259
 N                 -3.62246893   -2.54727493   -2.88067125
 N                  0.92316842    1.51690368    0.40189064
 C                  0.41980410    2.54332735    1.29658001
 H                 -0.41335666    3.05152459    0.85554567
 C                  1.41521141    2.28512433   -0.67741315
 H                  0.60229224    2.61320520   -1.29118077
 C                  2.40605430    1.48099785   -1.53970117
 H                  3.23725941    1.16665708   -0.93236159
 H                  1.91072669    0.61645376   -1.94344556
 H                  2.76284017    2.09919778   -2.34057108
 C                 -0.03011550    1.90313556    2.62894521
 H                 -0.82206195    1.20273265    2.44481390
 H                  0.80357079    1.39737011    3.07785599
 H                 -0.38195905    2.66480027    3.28877773
 C                  1.60540669    3.56926304    1.52337088
 H                  1.41060224    3.35953422    2.54662185
 H                  2.66153202    3.58417126    1.75138358
 C                  2.04878259    3.49961931   -0.01556087
 H                  2.97556330    3.08013866    0.31750395
 H                  2.60929622    4.07298764   -0.73730036

 1 2 1.5 6 1.5 11 1.0
 2 3 1.5 7 1.0
 3 4 1.5 8 1.0
 4 5 1.5 13 1.0
 5 6 1.5 9 1.0
 6 10 1.0
 7
 8
 9
 10
 11 12 3.0
 12
 13 14 1.0 16 1.0
 14 15 1.0 22 1.0 26 1.0
 15
 16 17 1.0 18 1.0 29 1.0
 17
 18 19 1.0 20 1.0 21 1.0
 19
 20
 21
 22 23 1.0 24 1.0 25 1.0
 23
 24
 25
 26 27 1.0 28 1.0 29 1.0
 27
 28
 29 30 1.0 31 1.0
 30
 31

